results/refactoring attempts/res_19_1.smt2
(declare-rel inv (Int))
(declare-rel inv2 (Int Int))
(declare-rel fail ())
(declare-var A Int)
(declare-var B Int)
(declare-var C Int)
(declare-var D Int)
(declare-var E Int)
(rule (=> (= 5143523 A) (inv A)))
(rule (=> (and (inv A) (> A 0) (= D 1) (= E (- 1))) (inv2 D E)))
(rule (let ((a!1 (and (inv2 D E) (= B (- (+ D D))) (= C (ite (< D 0) (* 4 E) E)))))
  (=> a!1 (inv2 B C))))
(rule (let ((a!1 (and (inv A) (inv2 D E) (> D A) (not (= 0 (+ D E))))))
  (=> a!1 fail)))
(query fail)

